;; Mutation-Based Equivalence Benchmark
;; Source:     AutomatArk / instance06836.smt2
;; Mutations:  opt_to_required
;; Status:     sat
;;
;; Original regex vs mutated regex
;; Equivalence check: unsat ⟺ L(R1) = L(R2)

(set-info :smt-lib-version 2.6)
(set-info :category "mutation")
(set-info :status sat)
(set-logic QF_S)


;; R1: original
;; R2: mutated (opt_to_required)
(assert
  (not
    (=
      (re.++ ((_ re.loop 3 3) (re.union (str.to_re "0.") (re.++ (str.to_re ".") (re.range "1" "9") (re.opt (re.+ (re.range "0" "9")))))) ((_ re.loop 1 1) (re.union (str.to_re "0") (re.++ (re.range "1" "9") (re.opt (re.+ (re.range "0" "9")))))) (str.to_re "\u{a}"))
      (re.++ ((_ re.loop 3 3) (re.union (str.to_re "0.") (re.++ (str.to_re ".") (re.range "1" "9") re.+ (re.range "0" "9"))))))))

(check-sat)
(exit)
